11849.0
0 1 1 1 1 1 0 1 0 1 0 0 1 1 0 1 1 1 1 1 
18 5 5 16 5 5 5 5 19 19 19 7 7 7 7 7 7 12 13 12 12 13 13 12 3 9 15 9 15 9 15 15 9 15 18 18 18 18 18 18 18 18 18 18 5 5 7 12 12 9 15 4 7 18 5 15 3 3 1 7 18 2 15 12 3 13 9 5 7 5 17 18 7 3 3 15 3 7 5 9 18 19 12 15 15 3 1 5 15 4 2 2 17 17 15 17 1 7 1 16 